CPXPARAM_TimeLimit                               3600
CPXPARAM_Read_DataCheck                          1
CPXPARAM_MIP_Strategy_HeuristicFreq              -1
Tried aggregator 1 time.
MIP Presolve eliminated 171 rows and 90 columns.
MIP Presolve modified 53 coefficients.
Reduced MIP has 229 rows, 46 columns, and 663 nonzeros.
Reduced MIP has 30 binaries, 0 generals, 0 SOSs, and 0 indicators.
Presolve time = 0.00 sec. (0.63 ticks)
Probing fixed 0 vars, tightened 1 bounds.
Probing time = 0.00 sec. (0.05 ticks)
Tried aggregator 1 time.
Reduced MIP has 229 rows, 46 columns, and 663 nonzeros.
Reduced MIP has 30 binaries, 0 generals, 0 SOSs, and 0 indicators.
Presolve time = 0.00 sec. (0.33 ticks)
Probing time = 0.00 sec. (0.05 ticks)
MIP emphasis: balance optimality and feasibility.
MIP search method: dynamic search.
Parallel mode: deterministic, using up to 8 threads.
Root relaxation solution time = 0.00 sec. (0.76 ticks)

        Nodes                                         Cuts/
   Node  Left     Objective  IInf  Best Integer    Best Bound    ItCnt     Gap

      0     0       29.1324    17                     29.1324       73         
      0     0       30.1249    16                    Cuts: 46       97         
      0     0       30.9793    16                    Cuts: 47      116         
      0     0       31.0067    18                    Cuts: 14      127         
      0     0       31.0630    15                    Cuts: 12      137         
      0     0       31.0783    15                    Cuts: 21      149         
      0     0       31.1300    14                    Cuts: 16      157         
      0     0       31.2644    14                    Cuts: 20      175         
      0     0       31.2770    15                    Cuts: 23      183         
      0     0       31.2880    16                  MIRcuts: 9      188         
      0     0       31.3013    15                     Cuts: 6      193         
      0     0       31.3020    15                     Cuts: 9      196         
      0     0       31.3187    17                    Cuts: 11      200         
      0     0       31.3901    16                  MIRcuts: 8      209         
      0     0       31.3916    16                     Cuts: 3      213         
      0     2       31.3916    14                     31.3916      213         
Elapsed time = 0.02 sec. (17.53 ticks, tree = 0.01 MB, solutions = 0)
*     6     3      integral     0       33.0000       31.4073      242    4.83%

Implied bound cuts applied:  1
Flow cuts applied:  3
Mixed integer rounding cuts applied:  15
Gomory fractional cuts applied:  1

Root node processing (before b&c):
  Real time             =    0.02 sec. (17.43 ticks)
Parallel b&c, 8 threads:
  Real time             =    0.00 sec. (1.14 ticks)
  Sync time (average)   =    0.00 sec.
  Wait time (average)   =    0.00 sec.
                          ------------
Total (root+branch&cut) =    0.02 sec. (18.57 ticks)
